50, 3729
27, 216
504, 1232
252, 616
252, 616
18, 144
90, 720
189, 462
63, 504
378, 924
126, 308
18, 144
9, 72
90, 720
90, 720
441, 1078
63, 504
378, 924
18, 144
567, 1386
18, 144
189, 462
54, 432
81, 648
27, 216
72, 576
54, 432
315, 770
54, 432
45, 360
54, 432
45, 360
567, 1386
9, 72
504, 1232
63, 154
90, 720
252, 616
90, 720
36, 288
63, 504
27, 216
9, 72
630, 1540
189, 462
36, 288
9, 72
18, 144
81, 648
189, 462
90, 720
